Maximize

x_0_0 + x_0_1 + x_1_0 + x_1_1 + x_2_0 + x_2_1 + x_3_0 + x_3_1 + x_4_0 + x_4_1 + x_5_0 + x_5_1 + x_6_0 + x_6_1 + x_7_0 + x_7_1 + x_8_0 + x_8_1 + x_9_0 + x_9_1

Subject To


   a0: 15.0 x_0_0 <= 15.0
   a2: 15.0 x_0_1 <= 18.0
   a1: 20.0 x_1_0 <= 15.0
   a3: 20.0 x_1_1 <= 18.0
   a2: 16.5 x_2_0 <= 15.0
   a4: 16.5 x_2_1 <= 18.0
   a3: 16.0 x_3_0 <= 15.0
   a5: 16.0 x_3_1 <= 18.0
   a4: 17.5 x_4_0 <= 15.0
   a6: 17.5 x_4_1 <= 18.0
   a5: 18.0 x_5_0 <= 15.0
   a7: 18.0 x_5_1 <= 18.0
   a6: 10.0 x_6_0 <= 15.0
   a8: 10.0 x_6_1 <= 18.0
   a7: 11.5 x_7_0 <= 15.0
   a9: 11.5 x_7_1 <= 18.0
   a8: 12.0 x_8_0 <= 15.0
   a10: 12.0 x_8_1 <= 18.0
   a9: 17.0 x_9_0 <= 15.0
   a11: 17.0 x_9_1 <= 18.0

   b0: 2.5 x_0_0 + 1.5 x_1_0 + 0.3 x_2_0 + 1.2 x_3_0 + 0.3 x_4_0 + 3.0 x_5_0 + 4.0 x_6_0 + 0.6 x_7_0 + 4.5 x_8_0 + 1.0 x_9_0 <= 7.0
   b1: 2.5 x_0_1 + 1.5 x_1_1 + 0.3 x_2_1 + 1.2 x_3_1 + 0.3 x_4_1 + 3.0 x_5_1 + 4.0 x_6_1 + 0.6 x_7_1 + 4.5 x_8_1 + 1.0 x_9_1 <= 7.0

   c0: x_0_0 + x_0_1 + x_0_2 =  1
   c1: x_1_0 + x_1_1 + x_1_2 =  1
   c2: x_2_0 + x_2_1 + x_2_2 =  1
   c3: x_3_0 + x_3_1 + x_3_2 =  1
   c4: x_4_0 + x_4_1 + x_4_2 =  1
   c5: x_5_0 + x_5_1 + x_5_2 =  1
   c6: x_6_0 + x_6_1 + x_6_2 =  1
   c7: x_7_0 + x_7_1 + x_7_2 =  1
   c8: x_8_0 + x_8_1 + x_8_2 =  1
   c9: x_9_0 + x_9_1 + x_9_2 =  1

Binary

  x_0_0 x_0_1 x_0_2 x_1_0 x_1_1 x_1_2 x_2_0 x_2_1 x_2_2 x_3_0 x_3_1 x_3_2 x_4_0 x_4_1 x_4_2 x_5_0 x_5_1 x_5_2 x_6_0 x_6_1 x_6_2 x_7_0 x_7_1 x_7_2 x_8_0 x_8_1 x_8_2 x_9_0 x_9_1 x_9_2

End


